c File: instances/32_0.25_1.col
c
c Description: Random graph of size 32 vertices and P(0.25) of edges between any two vertices.
p col 32 496
e 1 2
e 1 7
e 1 9
e 1 10
e 1 11
e 1 14
e 1 15
e 1 29
e 2 4
e 2 14
e 2 15
e 2 16
e 2 17
e 2 19
e 2 24
e 2 28
e 2 31
e 3 7
e 3 11
e 3 12
e 3 31
e 3 32
e 4 6
e 4 7
e 4 10
e 4 12
e 4 13
e 4 21
e 4 22
e 4 25
e 4 26
e 5 8
e 5 12
e 5 18
e 5 19
e 5 25
e 5 28
e 5 29
e 5 30
e 5 31
e 6 10
e 6 11
e 6 15
e 6 20
e 6 25
e 6 26
e 6 27
e 7 10
e 7 12
e 7 18
e 7 22
e 7 26
e 7 29
e 8 9
e 8 27
e 8 32
e 9 10
e 9 13
e 9 14
e 9 16
e 9 18
e 9 24
e 10 12
e 10 17
e 10 27
e 11 14
e 11 15
e 11 17
e 11 19
e 11 22
e 11 28
e 11 30
e 11 31
e 12 13
e 12 18
e 12 23
e 12 26
e 12 28
e 12 29
e 12 30
e 12 31
e 13 24
e 13 28
e 14 18
e 14 20
e 14 21
e 14 24
e 14 26
e 15 20
e 15 24
e 15 25
e 15 27
e 15 31
e 15 32
e 16 20
e 16 22
e 16 29
e 16 32
e 17 21
e 17 23
e 17 27
e 17 31
e 19 21
e 19 23
e 20 21
e 20 22
e 20 25
e 21 22
e 21 25
e 21 29
e 21 31
e 21 32
e 22 23
e 22 32
e 23 25
e 24 28
e 24 30
e 24 32
e 25 29
e 25 30
e 26 32
e 27 29
e 28 30
e 28 32